feasible solution found by trivial heuristic after 0.0 seconds, objective value 0.000000e+00
presolving:
(round 1, fast)       1471 del vars, 0 del conss, 0 add conss, 0 chg bounds, 0 chg sides, 0 chg coeffs, 0 upgd conss, 0 impls, 10031 clqs
   (0.1s) running MILP presolver
   (0.3s) MILP presolver (2 rounds): 0 aggregations, 3545 fixings, 0 bound changes
(round 2, medium)     5016 del vars, 19195 del conss, 15650 add conss, 0 chg bounds, 0 chg sides, 0 chg coeffs, 0 upgd conss, 0 impls, 10031 clqs
(round 3, exhaustive) 5016 del vars, 20666 del conss, 15650 add conss, 0 chg bounds, 0 chg sides, 0 chg coeffs, 0 upgd conss, 0 impls, 12105 clqs
(round 4, exhaustive) 5016 del vars, 20666 del conss, 15650 add conss, 0 chg bounds, 0 chg sides, 0 chg coeffs, 14179 upgd conss, 0 impls, 12105 clqs
   (0.5s) probing: 51/2226 (2.3%) - 0 fixings, 0 aggregations, 0 implications, 0 bound changes
   (0.5s) probing aborted: 50/50 successive totally useless probings
   (0.6s) symmetry computation started: requiring (bin +, int -, cont +), (fixed: bin -, int +, cont -)
   (0.6s) no symmetry present
presolving (5 rounds: 5 fast, 4 medium, 3 exhaustive):
 5016 deleted vars, 20666 deleted constraints, 15650 added constraints, 0 tightened bounds, 0 added holes, 0 changed sides, 0 changed coefficients
 0 implications, 12105 cliques
presolved problem has 2226 variables (2226 bin, 0 int, 0 impl, 0 cont) and 14179 constraints
  12105 constraints of type <setppc>
   2074 constraints of type <logicor>
Presolving Time: 0.58
transformed 1/1 original solutions to the transformed problem space

 time | node  | left  |LP iter|LP it/n|mem/heur|mdpt |vars |cons |rows |cuts |sepa|confs|strbr|  dualbound   | primalbound  |  gap   | compl. 
p 0.7s|     1 |     0 |     0 |     - |   locks|   0 |2226 |  14k|  14k|   0 |  0 |   0 |   0 | 7.394000e+03 | 5.360000e+02 |1279.48%| unknown
  1.2s|     1 |     0 |  1107 |     - |   101M |   0 |2226 |  14k|  14k|   0 |  0 |   0 |   0 | 1.433283e+03 | 5.360000e+02 | 167.40%| unknown
r 1.2s|     1 |     0 |  1107 |     - |randroun|   0 |2226 |  14k|  14k|   0 |  0 |   0 |   0 | 1.433283e+03 | 5.710000e+02 | 151.01%| unknown
i 1.2s|     1 |     0 |  1107 |     - |  oneopt|   0 |2226 |  14k|  14k|   0 |  0 |   0 |   0 | 1.433283e+03 | 8.300000e+02 |  72.68%| unknown
  1.3s|     1 |     0 |  1264 |     - |   104M |   0 |2226 |  14k|  14k|   1 |  1 |   0 |   0 | 1.429488e+03 | 8.300000e+02 |  72.23%| unknown
  1.5s|     1 |     0 |  1423 |     - |   106M |   0 |2226 |  14k|  14k|   2 |  2 |   0 |   0 | 1.426950e+03 | 8.300000e+02 |  71.92%| unknown
  1.6s|     1 |     0 |  1596 |     - |   109M |   0 |2226 |  14k|  14k|   3 |  3 |   0 |   0 | 1.425554e+03 | 8.300000e+02 |  71.75%| unknown
  1.7s|     1 |     0 |  1789 |     - |   111M |   0 |2226 |  14k|  14k|   4 |  4 |   0 |   0 | 1.424432e+03 | 8.300000e+02 |  71.62%| unknown
  1.9s|     1 |     0 |  1909 |     - |   114M |   0 |2226 |  14k|  14k|   5 |  5 |   0 |   0 | 1.423991e+03 | 8.300000e+02 |  71.57%| unknown
  2.0s|     1 |     0 |  2061 |     - |   116M |   0 |2226 |  14k|  14k|   6 |  6 |   0 |   0 | 1.423398e+03 | 8.300000e+02 |  71.49%| unknown
  2.1s|     1 |     0 |  2226 |     - |   119M |   0 |2226 |  14k|  14k|   7 |  7 |   0 |   0 | 1.423102e+03 | 8.300000e+02 |  71.46%| unknown
  2.2s|     1 |     0 |  2343 |     - |   121M |   0 |2226 |  14k|  14k|   8 |  8 |   0 |   0 | 1.422841e+03 | 8.300000e+02 |  71.43%| unknown
  2.4s|     1 |     0 |  2479 |     - |   125M |   0 |2226 |  14k|  14k|   9 |  9 |   0 |   0 | 1.422593e+03 | 8.300000e+02 |  71.40%| unknown
  2.5s|     1 |     0 |  2609 |     - |   126M |   0 |2226 |  14k|  14k|  10 | 10 |   0 |   0 | 1.422461e+03 | 8.300000e+02 |  71.38%| unknown
  2.6s|     1 |     0 |  2726 |     - |   128M |   0 |2226 |  14k|  14k|  11 | 11 |   0 |   0 | 1.422380e+03 | 8.300000e+02 |  71.37%| unknown
 time | node  | left  |LP iter|LP it/n|mem/heur|mdpt |vars |cons |rows |cuts |sepa|confs|strbr|  dualbound   | primalbound  |  gap   | compl. 
  2.6s|     1 |     0 |  2790 |     - |   129M |   0 |2226 |  14k|  14k|  12 | 12 |   0 |   0 | 1.422338e+03 | 8.300000e+02 |  71.37%| unknown
  2.7s|     1 |     0 |  2878 |     - |   131M |   0 |2226 |  14k|  14k|  13 | 13 |   0 |   0 | 1.422232e+03 | 8.300000e+02 |  71.35%| unknown
  2.8s|     1 |     0 |  2925 |     - |   132M |   0 |2226 |  14k|  14k|  14 | 14 |   0 |   0 | 1.422202e+03 | 8.300000e+02 |  71.35%| unknown
  2.8s|     1 |     0 |  2961 |     - |   134M |   0 |2226 |  14k|  14k|  16 | 15 |   0 |   0 | 1.422190e+03 | 8.300000e+02 |  71.35%| unknown
  2.9s|     1 |     0 |  3007 |     - |   135M |   0 |2226 |  14k|  14k|  17 | 16 |   0 |   0 | 1.422177e+03 | 8.300000e+02 |  71.35%| unknown
d 3.5s|     1 |     0 |  4210 |     - |farkasdi|   0 |2226 |  14k|  14k|   0 | 18 |   0 |   0 | 1.422177e+03 | 9.370000e+02 |  51.78%| unknown
L16.8s|     1 |     0 |  4210 |     - |    rens|   0 |2226 |  14k|  14k|  17 | 18 |   0 |   0 | 1.422177e+03 | 1.068000e+03 |  33.16%| unknown
 16.8s|     1 |     0 |  4210 |     - |   137M |   0 |2226 |  14k|  14k|  17 | 18 |   0 |   0 | 1.422177e+03 | 1.068000e+03 |  33.16%| unknown
 16.9s|     1 |     0 |  4284 |     - |   137M |   0 |2226 |  14k|  14k|  18 | 19 |   0 |   0 | 1.422128e+03 | 1.068000e+03 |  33.16%| unknown
 17.0s|     1 |     0 |  4350 |     - |   137M |   0 |2226 |  14k|  14k|  19 | 20 |   0 |   0 | 1.422084e+03 | 1.068000e+03 |  33.15%| unknown
 27.5s|     1 |     2 |  4350 |     - |   137M |   0 |2226 |  14k|  14k|  19 | 20 |   0 |  23 | 1.406376e+03 | 1.068000e+03 |  31.68%| unknown

SCIP Status        : problem is solved [optimal solution found]
Solving Time (sec) : 92.48
Solving Nodes      : 31
Primal Bound       : +1.06800000000000e+03 (80 solutions)
Dual Bound         : +1.06800000000000e+03
Gap                : 0.00 %
Solve Status: optimal
Solve Time: 92.48 seconds
